20
2 0 2
3 1 6
4 0 2
4 1 3
4 2 1
5 2 2
5 3 5
5 4 5
6 2 5
6 3 2
7 0 7
7 1 7
7 2 2
7 5 7
8 0 5
8 1 6
8 2 4
8 3 3
8 7 3
9 4 4
9 5 3
9 7 2
9 8 6
10 0 5
10 1 6
10 4 2
10 6 5
11 2 2
11 5 1
11 6 4
11 7 7
11 8 5
12 0 1
12 1 7
12 2 5
12 3 1
12 4 5
12 5 2
12 6 6
12 9 1
12 11 5
13 0 2
13 3 7
13 7 4
13 9 4
13 11 5
13 12 4
14 0 2
14 5 2
14 7 4
14 9 1
14 12 2
15 2 6
15 3 4
15 6 6
15 7 5
15 8 5
15 10 1
15 11 6
15 13 2
16 1 6
16 2 6
16 3 4
16 4 2
16 5 5
16 6 1
16 7 5
16 8 1
16 10 3
16 13 4
16 15 4
17 2 6
17 7 5
17 8 7
17 10 2
17 11 2
17 12 1
17 13 2
17 14 5
17 16 6
18 0 7
18 1 5
18 6 4
18 7 4
18 11 7
18 12 7
18 13 1
18 14 7
18 16 6
18 17 2
19 4 3
19 6 1
19 8 6
19 9 2
19 10 3
19 11 7
19 13 4
19 15 1
19 16 4
19 17 6
